10
1 0 2
2 0 4
2 1 7
3 0 7
3 1 2
3 2 4
4 0 7
4 1 6
4 2 8
4 3 9
5 0 1
5 1 1
5 2 1
5 3 10
5 4 5
6 0 8
6 1 8
6 2 10
6 3 2
6 4 10
6 5 3
7 0 6
7 1 4
7 2 8
7 3 3
7 4 6
7 5 3
7 6 6
8 0 9
8 1 7
8 2 8
8 3 10
8 4 4
8 5 6
8 6 5
8 7 7
9 0 1
9 1 3
9 2 1
9 3 9
9 4 1
9 5 6
9 6 10
9 7 5
9 8 6
